108	22	4	67	
9	9	10	10

0	0	0	0	0	0	3	1	2	3
1	8	0	0	4	10	1	4
2	4	0	6	5	5	1	6
3	0	8	0	0	6	1	8
4	0	4	0	1	1	1	5
5	0	0	0	8	4	1	7
6	5	5	0	9	5	1	10
7	5	5	1	5	6	1	9
8	0	0	4	0	4	2	13	17
9	7	9	8	0	8	1	11
10	7	0	0	5	3	1	12
11	0	0	0	4	1	2	15	19
12	0	0	0	9	1	1	13
13	0	5	3	0	3	2	14	20
14	0	7	0	0	4	1	15
15	0	0	10	9	3	1	16
16	9	2	9	8	10	1	18
17	5	0	0	0	10	1	20
18	0	7	2	0	10	1	21
19	0	0	0	1	5	1	21
20	3	0	8	3	9	1	21
21	0	0	0	0	0	0
